0000000000000000
0000000000000000
0000000000000000
0000000000000000
0000111110000000
0000000010000000
0000000010000000
0000000010000000
0000000010000000
0000001110000000
0000111010000000
0000100010000000
0000100010000000
0000100010000000
0000000000000000
0000000000000000
